2 30
803 658 
0 17 7 35 25 73 89 1
1 31 21 16 6 84 62 2
2 77 67 12 2 82 78 2
3 28 18 44 34 9 70 2
4 59 49 30 20 96 70 1
5 105 95 106 96 29 25 1
6 104 94 51 41 54 99 1
7 25 15 102 92 38 76 1
8 65 55 16 6 97 62 2
9 31 21 99 89 78 47 2
10 11 1 65 55 64 5 2
11 66 56 75 65 73 26 2
12 70 60 97 87 72 19 1
13 95 85 43 33 83 28 2
14 21 11 59 49 62 60 1
15 33 23 65 55 17 32 2
16 42 32 109 99 92 96 2
17 84 74 36 26 12 51 1
18 75 65 30 20 83 44 2
19 32 22 92 82 49 78 1
20 85 75 23 13 7 99 2
21 20 10 105 95 90 2 2
22 108 98 19 9 69 67 2
23 80 70 45 35 76 19 1
24 105 95 48 38 17 29 1
25 72 62 33 23 1 36 1
26 81 71 28 18 45 19 2
27 91 81 32 22 62 74 1
28 86 76 20 10 38 97 2
29 108 98 81 71 42 8 2
